(set-info :smt-lib-version 2.6)
(set-logic AUFLIA)
(set-info
  :source |
 Generated by PSyCO 0.1
 More info in N. P. Lopes and J. Monteiro. Weakest Precondition Synthesis for
 Compiler Optimizations, VMCAI'14.
|)
(set-info :category "industrial")
(set-info :status sat)
(declare-fun W_S1_V4 () Bool)
(declare-fun R_S1_V5 () Bool)
(declare-fun R_S1_V1 () Bool)
(declare-fun R_S1_V3 () Bool)
(declare-fun R_S1_V4 () Bool)
(declare-fun W_S1_V5 () Bool)
(declare-fun W_S1_V3 () Bool)
(declare-fun W_S2_V1 () Bool)
(declare-fun W_S2_V2 () Bool)
(declare-fun W_S1_V1 () Bool)
(declare-fun W_S1_V2 () Bool)
(declare-fun R_E1_V4 () Bool)
(declare-fun R_E1_V5 () Bool)
(declare-fun R_E1_V3 () Bool)
(declare-fun R_E1_V1 () Bool)
(declare-fun W_S2_V4 () Bool)
(declare-fun W_S2_V5 () Bool)
(declare-fun W_S2_V3 () Bool)
(declare-fun R_S1_V2 () Bool)
(declare-fun R_S2_V4 () Bool)
(declare-fun R_S2_V5 () Bool)
(declare-fun R_S2_V1 () Bool)
(declare-fun R_S2_V2 () Bool)
(declare-fun R_S2_V3 () Bool)
(declare-fun R_E1_V2 () Bool)
(assert
 (let (($x8430 (not W_S1_V5)))
 (let (($x8212 (not W_S1_V4)))
 (let (($x8166 (not W_S1_V3)))
 (let (($x9251 (and $x8166 $x8212 $x8430)))
 (let (($x9104 (not W_S2_V2)))
 (let (($x8983 (and $x9104 (not W_S2_V1))))
 (let
 (($x10023
   (or $x8983 $x9251 (and (not R_S1_V1) (not R_S1_V4) $x8166 $x8430)
   (and (not R_S1_V1) (not R_S1_V5) $x8166 $x8212)
   (and (not R_S1_V1) (not R_S1_V5) (not R_S1_V4) $x8166)
   (and (not R_S1_V3) (not R_S1_V1) $x8212 $x8430)
   (and (not R_S1_V3) (not R_S1_V1) (not R_S1_V4) $x8430)
   (and (not R_S1_V3) (not R_S1_V1) (not R_S1_V5) (not R_S1_V4))
   (and (not R_S1_V3) (not R_S1_V1) (not R_S1_V5) $x8212))))
 (let (($x8587 (not W_S1_V1)))
 (let
 (($x9168
   (or (and $x8166 $x8212 (not W_S1_V2) $x8430)
   (and (not R_E1_V3) (not R_E1_V5) (not R_E1_V4) (not W_S1_V2))
   (and (not R_E1_V3) (not R_E1_V5) $x8212 (not W_S1_V2))
   (and (not R_E1_V3) (not R_E1_V4) (not W_S1_V2) $x8430)
   (and (not R_E1_V3) $x8212 (not W_S1_V2) $x8430)
   (and (not R_E1_V5) (not R_E1_V4) $x8166 (not W_S1_V2))
   (and (not R_E1_V5) $x8166 $x8212 (not W_S1_V2))
   (and (not R_E1_V4) $x8166 (not W_S1_V2) $x8430))))
 (let (($x1021 (not R_E1_V1))) (and $x1021 $x9168 $x8587 $x10023))))))))))))
(assert
 (forall
  ((V3_0 Int) (V2_0 Int) (V1_0 Int) 
   (V5_0 Int) (V4_0 Int) (S1_V4_!2813 Int) 
   (S1_V4_!2830 Int) (S1_V4_!2840 Int) 
   (S2_V1_!2817 Int) (S2_V1_!2822 Int) 
   (S2_V1_!2833 Int) (S2_V1_!2843 Int) 
   (S2_V2_!2816 Int) (S2_V2_!2821 Int) 
   (S2_V2_!2832 Int) (S2_V2_!2842 Int) 
   (S1_V1_!2811 Int) (S1_V1_!2828 Int) 
   (S1_V1_!2838 Int) (S2_V3_!2815 Int) 
   (S2_V3_!2820 Int) (S2_V3_!2831 Int) 
   (S2_V3_!2841 Int) (E1_!2808 Int) 
   (E1_!2814 Int) (E1_!2825 Int) 
   (S1_V3_!2809 Int) (S1_V3_!2826 Int) 
   (S1_V3_!2836 Int) (S1_V2_!2810 Int) 
   (S1_V2_!2827 Int) (S1_V2_!2837 Int) 
   (S2_V4_!2819 Int) (S2_V4_!2824 Int) 
   (S2_V4_!2835 Int) (S2_V4_!2845 Int) 
   (S2_V5_!2818 Int) (S2_V5_!2823 Int) 
   (S2_V5_!2834 Int) (S2_V5_!2844 Int) 
   (S1_V5_!2812 Int) (S1_V5_!2829 Int) 
   (S1_V5_!2839 Int))
  (let ((?x9410 (ite W_S1_V4 S1_V4_!2830 V4_0)))
  (let ((?x7654 (ite W_S2_V4 S2_V4_!2835 ?x9410)))
  (let ((?x9399 (ite W_S1_V4 S1_V4_!2840 ?x7654)))
  (let
  (($x8862
    (= (ite W_S2_V4 S2_V4_!2824 (ite W_S1_V4 S1_V4_!2813 V4_0))
    (ite W_S2_V4 S2_V4_!2845 ?x9399))))
  (let ((?x9462 (ite W_S1_V5 S1_V5_!2829 V5_0)))
  (let ((?x9138 (ite W_S2_V5 S2_V5_!2834 ?x9462)))
  (let ((?x8438 (ite W_S1_V5 S1_V5_!2839 ?x9138)))
  (let
  (($x9063
    (= (ite W_S2_V5 S2_V5_!2823 (ite W_S1_V5 S1_V5_!2812 V5_0))
    (ite W_S2_V5 S2_V5_!2844 ?x8438))))
  (let ((?x9005 (ite W_S1_V1 S1_V1_!2828 E1_!2825)))
  (let ((?x9082 (ite W_S2_V1 S2_V1_!2833 ?x9005)))
  (let ((?x9545 (+ 1 ?x9082)))
  (let ((?x9614 (ite W_S1_V1 S1_V1_!2838 ?x9545)))
  (let ((?x9189 (ite W_S2_V1 S2_V1_!2843 ?x9614)))
  (let ((?x9046 (ite W_S2_V1 S2_V1_!2817 E1_!2814)))
  (let ((?x9456 (+ 1 ?x9046)))
  (let ((?x9471 (ite W_S2_V1 S2_V1_!2822 ?x9456)))
  (let (($x9419 (= ?x9471 ?x9189)))
  (let ((?x9179 (ite W_S1_V2 S1_V2_!2827 V2_0)))
  (let ((?x9008 (ite W_S2_V2 S2_V2_!2832 ?x9179)))
  (let ((?x9418 (ite W_S1_V2 S1_V2_!2837 ?x9008)))
  (let ((?x9421 (ite W_S2_V2 S2_V2_!2842 ?x9418)))
  (let ((?x9463 (ite W_S1_V2 S1_V2_!2810 V2_0)))
  (let ((?x9371 (ite W_S2_V2 S2_V2_!2821 ?x9463)))
  (let (($x9103 (= ?x9371 ?x9421)))
  (let ((?x9460 (ite W_S1_V3 S1_V3_!2826 V3_0)))
  (let ((?x8951 (ite W_S2_V3 S2_V3_!2831 ?x9460)))
  (let ((?x6752 (ite W_S1_V3 S1_V3_!2836 ?x8951)))
  (let
  (($x8719
    (= (ite W_S2_V3 S2_V3_!2820 (ite W_S1_V3 S1_V3_!2809 V3_0))
    (ite W_S2_V3 S2_V3_!2841 ?x6752))))
  (let
  (($x9060
    (and (not (<= V2_0 E1_!2808))
    (>= (ite W_S1_V1 S1_V1_!2811 E1_!2808) (+ (- 1) ?x9463))
    (not (<= ?x9463 E1_!2814))
    (not (<= (ite W_S2_V2 S2_V2_!2816 ?x9463) ?x9456))
    (>= ?x9471 (+ (- 1) ?x9371)) 
    (not (<= V2_0 E1_!2825)) 
    (not (<= ?x9008 ?x9545)) 
    (>= ?x9189 (+ (- 1) ?x9421)))))
  (let (($x9164 (= S1_V5_!2839 S1_V5_!2829)))
  (let (($x1105 (not R_S1_V4)))
  (let (($x8441 (or $x1105 (= ?x7654 V4_0))))
  (let (($x1103 (not R_S1_V5)))
  (let (($x8991 (or $x1103 (= ?x9138 V5_0))))
  (let (($x1098 (not R_S1_V2)))
  (let (($x8596 (or $x1098 (= ?x9008 V2_0))))
  (let (($x1096 (not R_S1_V3)))
  (let (($x8094 (or $x1096 (= ?x8951 V3_0))))
  (let
  (($x6885
    (and $x8094 $x8596 (or (not R_S1_V1) (= ?x9082 (+ (- 1) E1_!2825)))
    $x8991 $x8441)))
  (let (($x8567 (not $x6885)))
  (let (($x8180 (= S1_V5_!2839 S1_V5_!2812)))
  (let
  (($x8957
    (and $x8094 $x8596 (or (not R_S1_V1) (= ?x9082 (+ (- 1) E1_!2808)))
    $x8991 $x8441)))
  (let (($x8946 (not $x8957)))
  (let (($x9347 (not (or (not R_S1_V1) (= E1_!2808 E1_!2825)))))
  (let (($x9105 (or $x9347 (= S1_V5_!2812 S1_V5_!2829))))
  (let (($x8999 (= S2_V5_!2844 S2_V5_!2834)))
  (let (($x1119 (not R_S2_V4)))
  (let (($x9269 (or $x1119 (= ?x9399 ?x9410))))
  (let (($x1117 (not R_S2_V5)))
  (let (($x9534 (or $x1117 (= ?x8438 ?x9462))))
  (let (($x1115 (not R_S2_V1)))
  (let (($x9533 (or $x1115 (= ?x9614 ?x9005))))
  (let (($x1112 (not R_S2_V2)))
  (let (($x8161 (or $x1112 (= ?x9418 ?x9179))))
  (let (($x1110 (not R_S2_V3)))
  (let (($x9321 (or $x1110 (= ?x6752 ?x9460))))
  (let (($x8622 (= S2_V5_!2844 S2_V5_!2823)))
  (let
  (($x7662
    (or $x1119
    (= ?x9399 (ite W_S2_V4 S2_V4_!2819 (ite W_S1_V4 S1_V4_!2813 V4_0))))))
  (let
  (($x9303
    (or $x1117
    (= ?x8438 (ite W_S2_V5 S2_V5_!2818 (ite W_S1_V5 S1_V5_!2812 V5_0))))))
  (let (($x9519 (or $x1112 (= ?x9418 (ite W_S2_V2 S2_V2_!2816 ?x9463)))))
  (let
  (($x9205
    (or $x1110
    (= ?x6752 (ite W_S2_V3 S2_V3_!2815 (ite W_S1_V3 S1_V3_!2809 V3_0))))))
  (let (($x9348 (= S2_V5_!2844 S2_V5_!2818)))
  (let (($x9369 (or $x1119 (= ?x9399 (ite W_S1_V4 S1_V4_!2813 V4_0)))))
  (let (($x9608 (or $x1117 (= ?x8438 (ite W_S1_V5 S1_V5_!2812 V5_0)))))
  (let (($x9702 (or $x1115 (= ?x9614 E1_!2814))))
  (let (($x9235 (or $x1112 (= ?x9418 ?x9463))))
  (let (($x9609 (or $x1110 (= ?x6752 (ite W_S1_V3 S1_V3_!2809 V3_0)))))
  (let (($x9707 (= S2_V5_!2834 S2_V5_!2823)))
  (let
  (($x9805
    (or $x1119
    (= ?x9410 (ite W_S2_V4 S2_V4_!2819 (ite W_S1_V4 S1_V4_!2813 V4_0))))))
  (let
  (($x8518
    (or $x1117
    (= ?x9462 (ite W_S2_V5 S2_V5_!2818 (ite W_S1_V5 S1_V5_!2812 V5_0))))))
  (let (($x9397 (or $x1112 (= ?x9179 (ite W_S2_V2 S2_V2_!2816 ?x9463)))))
  (let
  (($x8498
    (or $x1110
    (= ?x9460 (ite W_S2_V3 S2_V3_!2815 (ite W_S1_V3 S1_V3_!2809 V3_0))))))
  (let (($x8934 (= S2_V5_!2834 S2_V5_!2818)))
  (let (($x9864 (or $x1119 (= ?x9410 (ite W_S1_V4 S1_V4_!2813 V4_0)))))
  (let (($x9866 (or $x1117 (= ?x9462 (ite W_S1_V5 S1_V5_!2812 V5_0)))))
  (let (($x9861 (or $x1115 (= ?x9005 E1_!2814))))
  (let (($x9487 (or $x1112 (= ?x9179 ?x9463))))
  (let (($x9401 (or $x1110 (= ?x9460 (ite W_S1_V3 S1_V3_!2809 V3_0)))))
  (let (($x9881 (= S2_V5_!2823 S2_V5_!2818)))
  (let ((?x8462 (ite W_S1_V4 S1_V4_!2813 V4_0)))
  (let ((?x9212 (ite W_S2_V4 S2_V4_!2819 ?x8462)))
  (let (($x8569 (or $x1119 (= ?x9212 ?x8462))))
  (let ((?x9171 (ite W_S1_V5 S1_V5_!2812 V5_0)))
  (let ((?x9514 (ite W_S2_V5 S2_V5_!2818 ?x9171)))
  (let (($x9882 (or $x1117 (= ?x9514 ?x9171))))
  (let (($x8466 (or $x1112 (= (ite W_S2_V2 S2_V2_!2816 ?x9463) ?x9463))))
  (let ((?x8503 (ite W_S1_V3 S1_V3_!2809 V3_0)))
  (let ((?x9520 (ite W_S2_V3 S2_V3_!2815 ?x8503)))
  (let (($x9295 (or $x1110 (= ?x9520 ?x8503))))
  (let
  (($x9580
    (not
    (and $x9295 $x8466 (or $x1115 (= ?x9046 (+ (- 1) E1_!2814))) $x9882
    $x8569))))
  (let (($x9403 (= S2_V4_!2835 S2_V4_!2845)))
  (let (($x9599 (or $x1119 (= ?x9410 ?x9399))))
  (let (($x9588 (or $x1117 (= ?x9462 ?x8438))))
  (let (($x9160 (or $x1115 (= ?x9005 ?x9614))))
  (let (($x8704 (or $x1112 (= ?x9179 ?x9418))))
  (let (($x9619 (or $x1110 (= ?x9460 ?x6752))))
  (let (($x9402 (not (and $x9619 $x8704 $x9160 $x9588 $x9599))))
  (let (($x9559 (= S2_V4_!2824 S2_V4_!2845)))
  (let (($x9361 (or $x1119 (= ?x9212 ?x9399))))
  (let (($x9885 (or $x1117 (= ?x9514 ?x8438))))
  (let (($x9438 (or $x1112 (= (ite W_S2_V2 S2_V2_!2816 ?x9463) ?x9418))))
  (let (($x9151 (or $x1110 (= ?x9520 ?x6752))))
  (let
  (($x9543
    (not
    (and $x9151 $x9438 (or $x1115 (= ?x9046 (+ (- 1) ?x9614))) $x9885 $x9361))))
  (let (($x9467 (= S2_V4_!2824 S2_V4_!2835)))
  (let (($x7544 (or $x1119 (= ?x9212 ?x9410))))
  (let (($x9625 (or $x1117 (= ?x9514 ?x9462))))
  (let (($x8514 (or $x1112 (= (ite W_S2_V2 S2_V2_!2816 ?x9463) ?x9179))))
  (let (($x9941 (or $x1110 (= ?x9520 ?x9460))))
  (let
  (($x9245
    (not
    (and $x9941 $x8514 (or $x1115 (= ?x9046 (+ (- 1) ?x9005))) $x9625 $x7544))))
  (let (($x9481 (= S2_V4_!2819 S2_V4_!2845)))
  (let (($x9382 (or $x1119 (= ?x8462 ?x9399))))
  (let (($x9282 (or $x1117 (= ?x9171 ?x8438))))
  (let (($x9493 (or $x1115 (= E1_!2814 ?x9614))))
  (let (($x8440 (or $x1112 (= ?x9463 ?x9418))))
  (let (($x9786 (or $x1110 (= ?x8503 ?x6752))))
  (let (($x9188 (not (and $x9786 $x8440 $x9493 $x9282 $x9382))))
  (let (($x9004 (= S1_V2_!2827 S1_V2_!2837)))
  (let (($x9227 (or $x1105 (= V4_0 ?x7654))))
  (let (($x9935 (or $x1103 (= V5_0 ?x9138))))
  (let (($x8135 (or $x1098 (= V2_0 ?x9008))))
  (let (($x9376 (or $x1096 (= V3_0 ?x8951))))
  (let
  (($x9422
    (or
    (not
    (and $x9376 $x8135 (or (not R_S1_V1) (= E1_!2825 ?x9545)) $x9935 $x9227))
    $x9004)))
  (let (($x9892 (not (or (not R_S1_V1) (= E1_!2825 E1_!2808)))))
  (let (($x9719 (or $x9892 (= S1_V2_!2827 S1_V2_!2810))))
  (let (($x9891 (= S1_V2_!2810 S1_V2_!2837)))
  (let
  (($x9792
    (or
    (not
    (and $x9376 $x8135 (or (not R_S1_V1) (= E1_!2808 ?x9545)) $x9935 $x9227))
    $x9891)))
  (let (($x9521 (or $x9892 (= S1_V3_!2826 S1_V3_!2809))))
  (let (($x9070 (= E1_!2825 E1_!2814)))
  (let (($x1194 (not R_E1_V4)))
  (let (($x9185 (or $x1194 (= V4_0 ?x8462))))
  (let (($x1192 (not R_E1_V5)))
  (let (($x9243 (or $x1192 (= V5_0 ?x9171))))
  (let (($x1184 (not R_E1_V2)))
  (let (($x9586 (or $x1184 (= V2_0 ?x9463))))
  (let (($x1180 (not R_E1_V3)))
  (let (($x9069 (or $x1180 (= V3_0 ?x8503))))
  (let
  (($x9900
    (and $x9069 $x9586
    (or (not R_E1_V1) (= V1_0 (+ 1 (ite W_S1_V1 S1_V1_!2811 E1_!2808))))
    $x9243 $x9185)))
  (let (($x9417 (= E1_!2825 E1_!2808)))
  (let (($x9587 (= S2_V3_!2815 S2_V3_!2831)))
  (let (($x9485 (or $x1119 (= ?x8462 ?x9410))))
  (let (($x8528 (or $x1117 (= ?x9171 ?x9462))))
  (let (($x9087 (or $x1115 (= E1_!2814 ?x9005))))
  (let (($x9895 (or $x1112 (= ?x9463 ?x9179))))
  (let (($x9490 (or $x1110 (= ?x8503 ?x9460))))
  (let (($x9801 (not (and $x9490 $x9895 $x9087 $x8528 $x9485))))
  (let (($x9939 (= S1_V1_!2828 S1_V1_!2838)))
  (let
  (($x9338
    (or
    (not
    (and $x9376 $x8135 (or (not R_S1_V1) (= E1_!2825 ?x9545)) $x9935 $x9227))
    $x9939)))
  (let (($x9648 (= S1_V1_!2811 S1_V1_!2838)))
  (let
  (($x9644
    (or
    (not
    (and $x9376 $x8135 (or (not R_S1_V1) (= E1_!2808 ?x9545)) $x9935 $x9227))
    $x9648)))
  (let (($x9790 (or $x9347 (= S1_V1_!2811 S1_V1_!2828))))
  (let (($x9123 (= S2_V2_!2816 S2_V2_!2821)))
  (let (($x9432 (or $x1119 (= ?x8462 ?x9212))))
  (let (($x9594 (or $x1117 (= ?x9171 ?x9514))))
  (let (($x9901 (or $x1112 (= ?x9463 (ite W_S2_V2 S2_V2_!2816 ?x9463)))))
  (let (($x9468 (or $x1110 (= ?x8503 ?x9520))))
  (let (($x9415 (= S2_V1_!2843 S2_V1_!2822)))
  (let (($x8442 (= S2_V1_!2817 S2_V1_!2822)))
  (let (($x9117 (or $x9892 (= S1_V4_!2830 S1_V4_!2813))))
  (let
  (($x9687
    (and $x9117 (or $x8946 (= S1_V4_!2840 S1_V4_!2813))
    (or $x8567 (= S1_V4_!2840 S1_V4_!2830))
    (or
    (not (and $x9468 $x9901 (or $x1115 (= E1_!2814 ?x9456)) $x9594 $x9432))
    $x8442) (or $x9801 (= S2_V1_!2817 S2_V1_!2833))
    (or $x9245 (= S2_V1_!2822 S2_V1_!2833))
    (or (not (and $x9609 $x9235 $x9702 $x9608 $x9369))
    (= S2_V1_!2843 S2_V1_!2817))
    (or (not (and $x9205 $x9519 (or $x1115 (= ?x9614 ?x9456)) $x9303 $x7662))
    $x9415)
    (or (not (and $x9321 $x8161 $x9533 $x9534 $x9269))
    (= S2_V1_!2843 S2_V1_!2833))
    (or
    (not (and $x9468 $x9901 (or $x1115 (= E1_!2814 ?x9456)) $x9594 $x9432))
    $x9123) (or $x9801 (= S2_V2_!2816 S2_V2_!2832))
    (or $x9188 (= S2_V2_!2816 S2_V2_!2842))
    (or $x9245 (= S2_V2_!2821 S2_V2_!2832))
    (or $x9543 (= S2_V2_!2821 S2_V2_!2842))
    (or $x9402 (= S2_V2_!2832 S2_V2_!2842)) $x9790 $x9644 $x9338
    (or $x9801 $x9587) (or $x9188 (= S2_V3_!2815 S2_V3_!2841))
    (or $x9580 (= S2_V3_!2820 S2_V3_!2815))
    (or $x9245 (= S2_V3_!2820 S2_V3_!2831))
    (or $x9543 (= S2_V3_!2820 S2_V3_!2841))
    (or $x9402 (= S2_V3_!2831 S2_V3_!2841))
    (or (not $x9900) (= E1_!2808 E1_!2814)) $x9417 
    (or (not $x9900) $x9070) $x9521 
    (or $x8946 (= S1_V3_!2836 S1_V3_!2809))
    (or $x8567 (= S1_V3_!2836 S1_V3_!2826)) $x9792 $x9719 $x9422
    (or $x9188 $x9481) (or $x9580 (= S2_V4_!2824 S2_V4_!2819))
    (or $x9245 $x9467) (or $x9543 $x9559)
    (or (not (and $x9401 $x9487 $x9861 $x9866 $x9864))
    (= S2_V4_!2835 S2_V4_!2819)) 
    (or $x9402 $x9403) (or $x9580 $x9881)
    (or (not (and $x9401 $x9487 $x9861 $x9866 $x9864)) $x8934)
    (or (not (and $x8498 $x9397 (or $x1115 (= ?x9005 ?x9456)) $x8518 $x9805))
    $x9707) (or (not (and $x9609 $x9235 $x9702 $x9608 $x9369)) $x9348)
    (or (not (and $x9205 $x9519 (or $x1115 (= ?x9614 ?x9456)) $x9303 $x7662))
    $x8622) (or (not (and $x9321 $x8161 $x9533 $x9534 $x9269)) $x8999) $x9105
    (or $x8946 $x8180) (or $x8567 $x9164))))
  (or (not $x9687) (not $x9060) (and $x8719 $x9103 $x9419 $x9063 $x8862)))))))))))))))))))))))))))))))))))))))))))))))))))))))))))))))))))))))))))))))))))))))))))))))))))))))))))))))))))))))))))))))))))))))))))))))))))))))))))))))))))
(assert
 (let (($x9104 (not W_S2_V2)))
 (let (($x8983 (and $x9104 (not W_S2_V1)))) (not $x8983))))
(assert (not (and (not W_S2_V2) (not W_S2_V5) (not W_S2_V3) (not W_S2_V4))))
(assert
 (let (($x8430 (not W_S1_V5)))
 (let (($x8212 (not W_S1_V4)))
 (let (($x8166 (not W_S1_V3)))
 (let (($x9251 (and $x8166 $x8212 $x8430))) (not $x9251))))))
(assert
 (let (($x10398 (not W_S2_V3)))
 (let (($x10003 (not W_S2_V5)))
 (let (($x9104 (not W_S2_V2)))
 (let (($x8430 (not W_S1_V5)))
 (let (($x8166 (not W_S1_V3)))
 (let (($x1119 (not R_S2_V4)))
 (not (and $x1119 $x8166 $x8430 $x9104 $x10003 $x10398)))))))))
(assert
 (let (($x9104 (not W_S2_V2)))
 (let (($x1119 (not R_S2_V4)))
 (let (($x1117 (not R_S2_V5)))
 (let (($x1115 (not R_S2_V1)))
 (let (($x1110 (not R_S2_V3)))
 (not (and $x1110 $x1115 $x1117 $x1119 $x9104))))))))
(assert
 (let (($x10399 (not W_S2_V4)))
 (let (($x9104 (not W_S2_V2)))
 (let (($x8430 (not W_S1_V5)))
 (let (($x8166 (not W_S1_V3)))
 (let (($x1103 (not R_S1_V5)))
 (let (($x1096 (not R_S1_V3)))
 (not (and $x1096 $x1103 $x8166 $x8430 $x9104 $x10399)))))))))
(assert
 (let (($x9104 (not W_S2_V2)))
 (let (($x8430 (not W_S1_V5)))
 (let (($x8166 (not W_S1_V3)))
 (let (($x1119 (not R_S2_V4)))
 (let (($x1103 (not R_S1_V5)))
 (let (($x1096 (not R_S1_V3)))
 (not (and $x1096 $x1103 $x1119 $x8166 $x8430 $x9104)))))))))
(assert
 (let (($x9104 (not W_S2_V2)))
 (let (($x8430 (not W_S1_V5)))
 (let (($x8166 (not W_S1_V3)))
 (let (($x1117 (not R_S2_V5)))
 (let (($x1115 (not R_S2_V1)))
 (let (($x1110 (not R_S2_V3)))
 (let (($x1103 (not R_S1_V5)))
 (let (($x1096 (not R_S1_V3)))
 (not (and $x1096 $x1103 $x1110 $x1115 $x1117 $x8166 $x8430 $x9104)))))))))))
(assert
 (let (($x10399 (not W_S2_V4)))
 (let (($x10398 (not W_S2_V3)))
 (let (($x8430 (not W_S1_V5)))
 (let (($x1103 (not R_S1_V5)))
 (let (($x1098 (not R_S1_V2)))
 (not (and $x1098 $x1103 $x8430 $x10398 $x10399))))))))
(assert
 (let (($x10399 (not W_S2_V4)))
 (let (($x10003 (not W_S2_V5)))
 (let (($x8166 (not W_S1_V3)))
 (let (($x1098 (not R_S1_V2)))
 (let (($x1096 (not R_S1_V3)))
 (not (and $x1096 $x1098 $x8166 $x10003 $x10399))))))))
(assert
 (let (($x10399 (not W_S2_V4)))
 (let (($x8430 (not W_S1_V5)))
 (let (($x8166 (not W_S1_V3)))
 (let (($x1103 (not R_S1_V5)))
 (let (($x1098 (not R_S1_V2)))
 (let (($x1096 (not R_S1_V3)))
 (not (and $x1096 $x1098 $x1103 $x8166 $x8430 $x10399)))))))))
(assert
 (let (($x8430 (not W_S1_V5)))
 (let (($x8166 (not W_S1_V3)))
 (let (($x1119 (not R_S2_V4)))
 (let (($x1103 (not R_S1_V5)))
 (let (($x1098 (not R_S1_V2)))
 (let (($x1096 (not R_S1_V3)))
 (not (and $x1096 $x1098 $x1103 $x1119 $x8166 $x8430)))))))))
(check-sat)
(exit)

